71
0 8 2 51 20 67 16 48 70 57 
31 10 7 59 63 28 3 45 44 27 
33 56 50 4 66 47 40 37 58 21 
6 32 69 13 41 34 29 53 36 54 
64 15 25 68 18 30 9 49 52 46 
22 62 60 39 23 12 1 35 11 24 
65 61 19 17 42 55 26 14 5 43 
38 
